certificates/rado_a5_c293_N58.cnf
c Rad2 upper bound instance: x1 + 5*x2 - x3 = 293, interval [1,58]
p cnf 58 660
1 4 58 0
-1 -4 -58 0
2 5 58 0
-2 -5 -58 0
3 6 58 0
-3 -6 -58 0
4 7 58 0
-4 -7 -58 0
5 8 58 0
-5 -8 -58 0
1 9 57 0
-1 -9 -57 0
6 9 58 0
-6 -9 -58 0
2 10 57 0
-2 -10 -57 0
7 10 58 0
-7 -10 -58 0
3 11 57 0
-3 -11 -57 0
8 11 58 0
-8 -11 -58 0
4 12 57 0
-4 -12 -57 0
9 12 58 0
-9 -12 -58 0
5 13 57 0
-5 -13 -57 0
10 13 58 0
-10 -13 -58 0
1 14 56 0
-1 -14 -56 0
6 14 57 0
-6 -14 -57 0
11 14 58 0
-11 -14 -58 0
2 15 56 0
-2 -15 -56 0
7 15 57 0
-7 -15 -57 0
12 15 58 0
-12 -15 -58 0
3 16 56 0
-3 -16 -56 0
8 16 57 0
-8 -16 -57 0
13 16 58 0
-13 -16 -58 0
4 17 56 0
-4 -17 -56 0
9 17 57 0
-9 -17 -57 0
14 17 58 0
-14 -17 -58 0
5 18 56 0
-5 -18 -56 0
10 18 57 0
-10 -18 -57 0
15 18 58 0
-15 -18 -58 0
1 19 55 0
-1 -19 -55 0
6 19 56 0
-6 -19 -56 0
11 19 57 0
-11 -19 -57 0
16 19 58 0
-16 -19 -58 0
2 20 55 0
-2 -20 -55 0
7 20 56 0
-7 -20 -56 0
12 20 57 0
-12 -20 -57 0
17 20 58 0
-17 -20 -58 0
3 21 55 0
-3 -21 -55 0
8 21 56 0
-8 -21 -56 0
13 21 57 0
-13 -21 -57 0
18 21 58 0
-18 -21 -58 0
4 22 55 0
-4 -22 -55 0
9 22 56 0
-9 -22 -56 0
14 22 57 0
-14 -22 -57 0
19 22 58 0
-19 -22 -58 0
5 23 55 0
-5 -23 -55 0
10 23 56 0
-10 -23 -56 0
15 23 57 0
-15 -23 -57 0
20 23 58 0
-20 -23 -58 0
1 24 54 0
-1 -24 -54 0
6 24 55 0
-6 -24 -55 0
11 24 56 0
-11 -24 -56 0
16 24 57 0
-16 -24 -57 0
21 24 58 0
-21 -24 -58 0
2 25 54 0
-2 -25 -54 0
7 25 55 0
-7 -25 -55 0
12 25 56 0
-12 -25 -56 0
17 25 57 0
-17 -25 -57 0
22 25 58 0
-22 -25 -58 0
3 26 54 0
-3 -26 -54 0
8 26 55 0
-8 -26 -55 0
13 26 56 0
-13 -26 -56 0
18 26 57 0
-18 -26 -57 0
23 26 58 0
-23 -26 -58 0
4 27 54 0
-4 -27 -54 0
9 27 55 0
-9 -27 -55 0
14 27 56 0
-14 -27 -56 0
19 27 57 0
-19 -27 -57 0
24 27 58 0
-24 -27 -58 0
5 28 54 0
-5 -28 -54 0
10 28 55 0
-10 -28 -55 0
15 28 56 0
-15 -28 -56 0
20 28 57 0
-20 -28 -57 0
25 28 58 0
-25 -28 -58 0
1 29 53 0
-1 -29 -53 0
6 29 54 0
-6 -29 -54 0
11 29 55 0
-11 -29 -55 0
16 29 56 0
-16 -29 -56 0
21 29 57 0
-21 -29 -57 0
26 29 58 0
-26 -29 -58 0
2 30 53 0
-2 -30 -53 0
7 30 54 0
-7 -30 -54 0
12 30 55 0
-12 -30 -55 0
17 30 56 0
-17 -30 -56 0
22 30 57 0
-22 -30 -57 0
27 30 58 0
-27 -30 -58 0
3 31 53 0
-3 -31 -53 0
8 31 54 0
-8 -31 -54 0
13 31 55 0
-13 -31 -55 0
18 31 56 0
-18 -31 -56 0
23 31 57 0
-23 -31 -57 0
28 31 58 0
-28 -31 -58 0
4 32 53 0
-4 -32 -53 0
9 32 54 0
-9 -32 -54 0
14 32 55 0
-14 -32 -55 0
19 32 56 0
-19 -32 -56 0
24 32 57 0
-24 -32 -57 0
29 32 58 0
-29 -32 -58 0
5 33 53 0
-5 -33 -53 0
10 33 54 0
-10 -33 -54 0
15 33 55 0
-15 -33 -55 0
20 33 56 0
-20 -33 -56 0
25 33 57 0
-25 -33 -57 0
30 33 58 0
-30 -33 -58 0
1 34 52 0
-1 -34 -52 0
6 34 53 0
-6 -34 -53 0
11 34 54 0
-11 -34 -54 0
16 34 55 0
-16 -34 -55 0
21 34 56 0
-21 -34 -56 0
26 34 57 0
-26 -34 -57 0
31 34 58 0
-31 -34 -58 0
2 35 52 0
-2 -35 -52 0
7 35 53 0
-7 -35 -53 0
12 35 54 0
-12 -35 -54 0
17 35 55 0
-17 -35 -55 0
22 35 56 0
-22 -35 -56 0
27 35 57 0
-27 -35 -57 0
32 35 58 0
-32 -35 -58 0
3 36 52 0
-3 -36 -52 0
8 36 53 0
-8 -36 -53 0
13 36 54 0
-13 -36 -54 0
18 36 55 0
-18 -36 -55 0
23 36 56 0
-23 -36 -56 0
28 36 57 0
-28 -36 -57 0
33 36 58 0
-33 -36 -58 0
4 37 52 0
-4 -37 -52 0
9 37 53 0
-9 -37 -53 0
14 37 54 0
-14 -37 -54 0
19 37 55 0
-19 -37 -55 0
24 37 56 0
-24 -37 -56 0
29 37 57 0
-29 -37 -57 0
34 37 58 0
-34 -37 -58 0
5 38 52 0
-5 -38 -52 0
10 38 53 0
-10 -38 -53 0
15 38 54 0
-15 -38 -54 0
20 38 55 0
-20 -38 -55 0
25 38 56 0
-25 -38 -56 0
30 38 57 0
-30 -38 -57 0
35 38 58 0
-35 -38 -58 0
1 39 51 0
-1 -39 -51 0
6 39 52 0
-6 -39 -52 0
11 39 53 0
-11 -39 -53 0
16 39 54 0
-16 -39 -54 0
21 39 55 0
-21 -39 -55 0
26 39 56 0
-26 -39 -56 0
31 39 57 0
-31 -39 -57 0
36 39 58 0
-36 -39 -58 0
2 40 51 0
-2 -40 -51 0
7 40 52 0
-7 -40 -52 0
12 40 53 0
-12 -40 -53 0
17 40 54 0
-17 -40 -54 0
22 40 55 0
-22 -40 -55 0
27 40 56 0
-27 -40 -56 0
32 40 57 0
-32 -40 -57 0
37 40 58 0
-37 -40 -58 0
3 41 51 0
-3 -41 -51 0
8 41 52 0
-8 -41 -52 0
13 41 53 0
-13 -41 -53 0
18 41 54 0
-18 -41 -54 0
23 41 55 0
-23 -41 -55 0
28 41 56 0
-28 -41 -56 0
33 41 57 0
-33 -41 -57 0
38 41 58 0
-38 -41 -58 0
4 42 51 0
-4 -42 -51 0
9 42 52 0
-9 -42 -52 0
14 42 53 0
-14 -42 -53 0
19 42 54 0
-19 -42 -54 0
24 42 55 0
-24 -42 -55 0
29 42 56 0
-29 -42 -56 0
34 42 57 0
-34 -42 -57 0
39 42 58 0
-39 -42 -58 0
5 43 51 0
-5 -43 -51 0
10 43 52 0
-10 -43 -52 0
15 43 53 0
-15 -43 -53 0
20 43 54 0
-20 -43 -54 0
25 43 55 0
-25 -43 -55 0
30 43 56 0
-30 -43 -56 0
35 43 57 0
-35 -43 -57 0
40 43 58 0
-40 -43 -58 0
1 44 50 0
-1 -44 -50 0
6 44 51 0
-6 -44 -51 0
11 44 52 0
-11 -44 -52 0
16 44 53 0
-16 -44 -53 0
21 44 54 0
-21 -44 -54 0
26 44 55 0
-26 -44 -55 0
31 44 56 0
-31 -44 -56 0
36 44 57 0
-36 -44 -57 0
41 44 58 0
-41 -44 -58 0
2 45 50 0
-2 -45 -50 0
7 45 51 0
-7 -45 -51 0
12 45 52 0
-12 -45 -52 0
17 45 53 0
-17 -45 -53 0
22 45 54 0
-22 -45 -54 0
27 45 55 0
-27 -45 -55 0
32 45 56 0
-32 -45 -56 0
37 45 57 0
-37 -45 -57 0
42 45 58 0
-42 -45 -58 0
3 46 50 0
-3 -46 -50 0
8 46 51 0
-8 -46 -51 0
13 46 52 0
-13 -46 -52 0
18 46 53 0
-18 -46 -53 0
23 46 54 0
-23 -46 -54 0
28 46 55 0
-28 -46 -55 0
33 46 56 0
-33 -46 -56 0
38 46 57 0
-38 -46 -57 0
43 46 58 0
-43 -46 -58 0
4 47 50 0
-4 -47 -50 0
9 47 51 0
-9 -47 -51 0
14 47 52 0
-14 -47 -52 0
19 47 53 0
-19 -47 -53 0
24 47 54 0
-24 -47 -54 0
29 47 55 0
-29 -47 -55 0
34 47 56 0
-34 -47 -56 0
39 47 57 0
-39 -47 -57 0
44 47 58 0
-44 -47 -58 0
5 48 50 0
-5 -48 -50 0
10 48 51 0
-10 -48 -51 0
15 48 52 0
-15 -48 -52 0
20 48 53 0
-20 -48 -53 0
25 48 54 0
-25 -48 -54 0
30 48 55 0
-30 -48 -55 0
35 48 56 0
-35 -48 -56 0
40 48 57 0
-40 -48 -57 0
45 48 58 0
-45 -48 -58 0
1 49 0
-1 -49 0
6 49 50 0
-6 -49 -50 0
11 49 51 0
-11 -49 -51 0
16 49 52 0
-16 -49 -52 0
21 49 53 0
-21 -49 -53 0
26 49 54 0
-26 -49 -54 0
31 49 55 0
-31 -49 -55 0
36 49 56 0
-36 -49 -56 0
41 49 57 0
-41 -49 -57 0
46 49 58 0
-46 -49 -58 0
2 49 50 0
-2 -49 -50 0
7 50 0
-7 -50 0
12 50 51 0
-12 -50 -51 0
17 50 52 0
-17 -50 -52 0
22 50 53 0
-22 -50 -53 0
27 50 54 0
-27 -50 -54 0
32 50 55 0
-32 -50 -55 0
37 50 56 0
-37 -50 -56 0
42 50 57 0
-42 -50 -57 0
47 50 58 0
-47 -50 -58 0
3 49 51 0
-3 -49 -51 0
8 50 51 0
-8 -50 -51 0
13 51 0
-13 -51 0
18 51 52 0
-18 -51 -52 0
23 51 53 0
-23 -51 -53 0
28 51 54 0
-28 -51 -54 0
33 51 55 0
-33 -51 -55 0
38 51 56 0
-38 -51 -56 0
43 51 57 0
-43 -51 -57 0
48 51 58 0
-48 -51 -58 0
4 49 52 0
-4 -49 -52 0
9 50 52 0
-9 -50 -52 0
14 51 52 0
-14 -51 -52 0
19 52 0
-19 -52 0
24 52 53 0
-24 -52 -53 0
29 52 54 0
-29 -52 -54 0
34 52 55 0
-34 -52 -55 0
39 52 56 0
-39 -52 -56 0
44 52 57 0
-44 -52 -57 0
49 52 58 0
-49 -52 -58 0
5 49 53 0
-5 -49 -53 0
10 50 53 0
-10 -50 -53 0
15 51 53 0
-15 -51 -53 0
20 52 53 0
-20 -52 -53 0
25 53 0
-25 -53 0
30 53 54 0
-30 -53 -54 0
35 53 55 0
-35 -53 -55 0
40 53 56 0
-40 -53 -56 0
45 53 57 0
-45 -53 -57 0
50 53 58 0
-50 -53 -58 0
1 48 54 0
-1 -48 -54 0
6 49 54 0
-6 -49 -54 0
11 50 54 0
-11 -50 -54 0
16 51 54 0
-16 -51 -54 0
21 52 54 0
-21 -52 -54 0
26 53 54 0
-26 -53 -54 0
31 54 0
-31 -54 0
36 54 55 0
-36 -54 -55 0
41 54 56 0
-41 -54 -56 0
46 54 57 0
-46 -54 -57 0
51 54 58 0
-51 -54 -58 0
2 48 55 0
-2 -48 -55 0
7 49 55 0
-7 -49 -55 0
12 50 55 0
-12 -50 -55 0
17 51 55 0
-17 -51 -55 0
22 52 55 0
-22 -52 -55 0
27 53 55 0
-27 -53 -55 0
32 54 55 0
-32 -54 -55 0
37 55 0
-37 -55 0
42 55 56 0
-42 -55 -56 0
47 55 57 0
-47 -55 -57 0
52 55 58 0
-52 -55 -58 0
3 48 56 0
-3 -48 -56 0
8 49 56 0
-8 -49 -56 0
13 50 56 0
-13 -50 -56 0
18 51 56 0
-18 -51 -56 0
23 52 56 0
-23 -52 -56 0
28 53 56 0
-28 -53 -56 0
33 54 56 0
-33 -54 -56 0
38 55 56 0
-38 -55 -56 0
43 56 0
-43 -56 0
48 56 57 0
-48 -56 -57 0
53 56 58 0
-53 -56 -58 0
4 48 57 0
-4 -48 -57 0
9 49 57 0
-9 -49 -57 0
14 50 57 0
-14 -50 -57 0
19 51 57 0
-19 -51 -57 0
24 52 57 0
-24 -52 -57 0
29 53 57 0
-29 -53 -57 0
34 54 57 0
-34 -54 -57 0
39 55 57 0
-39 -55 -57 0
44 56 57 0
-44 -56 -57 0
49 57 0
-49 -57 0
54 57 58 0
-54 -57 -58 0
5 48 58 0
-5 -48 -58 0
10 49 58 0
-10 -49 -58 0
15 50 58 0
-15 -50 -58 0
20 51 58 0
-20 -51 -58 0
25 52 58 0
-25 -52 -58 0
30 53 58 0
-30 -53 -58 0
35 54 58 0
-35 -54 -58 0
40 55 58 0
-40 -55 -58 0
45 56 58 0
-45 -56 -58 0
50 57 58 0
-50 -57 -58 0
55 58 0
-55 -58 0
