certificates/rado_a5_c293_N58.drat
-58 0
55 0
-37 0
34 0
40 0
-16 0
-52 0
-22 0
13 0
19 0
49 0
25 0
4 0
-31 0
-51 0
-1 0
-57 0
-7 0
-43 0
-53 0
3 0
23 0
28 0
39 0
54 0
18 0
0
